71
125
99	4
98	2
97	1
96	3
95	5
94	2
93	4
92	2
91	2
90	3
89	1
88	2
87	3
86	2
85	4
84	2
83	4
82	7
81	2
80	4
79	2
78	3
77	4
76	5
75	2
74	3
73	4
72	2
71	2
70	2
69	3
68	5
67	1
66	2
65	2
64	3
63	3
62	4
61	3
60	2
59	3
58	1
57	3
56	3
54	3
53	4
52	4
51	2
50	2
49	2
48	4
47	2
46	2
44	6
43	2
42	1
40	2
39	2
38	6
37	2
36	3
35	3
34	1
33	3
32	3
31	1
30	3
28	2
27	4
26	3
25	2
